results/res_prop_muc/res_Cimatti_mathsat_cores/QF_IDL/FISCHER5-1-ninc.smt.smt2.res
unsat
( c0
  c1
  c104
  c113
  c2
  c230
  c285
  c373
  c383
  c385
  c420
  c461
  c7
  c9
  c90
  c97
  c99 )
